smt2tut/counter2b_compact.smt2
; SMT-LIBv2 description generated by Yosys 0.7+53 (git sha1 7da7a6d, clang 3.8.0-2ubuntu4 -fPIC -Os)
; yosys-smt2-module counter
(set-option :produce-models true)
(set-logic QF_AUFBV)
(declare-sort |counter_s| 0)
(declare-fun |counter_is| (|counter_s|) Bool)
; yosys-smt2-input clk 1
(declare-fun |counter#0| (|counter_s|) Bool) ; \clk
(define-fun |counter_n clk| ((state |counter_s|)) Bool (|counter#0| state))
; yosys-smt2-register cnt 3
(declare-fun |counter#1| (|counter_s|) (_ BitVec 3)) ; \cnt
(define-fun |counter_n cnt| ((state |counter_s|)) (_ BitVec 3) (|counter#1| state))
(define-fun |counter#2| ((state |counter_s|)) Bool (bvult (|counter#1| state) #b100)) ; $lt$counter2.v:4$4_Y
; yosys-smt2-assert counter#3 counter2.v:4
(define-fun |counter#3| ((state |counter_s|)) Bool (or (|counter#2| state) (not true))) ; $assert$counter2.v:4$5
(define-fun |counter#4| ((state |counter_s|)) (_ BitVec 3) (bvmul #b010 (|counter#1| state))) ; $auto$wreduce.cc:347:run$8 [2:0]
(define-fun |counter#5| ((state |counter_s|)) (_ BitVec 3) (bvadd (|counter#4| state) #b011)) ; $0\cnt[2:0]
(define-fun |counter_a| ((state |counter_s|)) Bool
(|counter#3| state)
)
(define-fun |counter_u| ((state |counter_s|)) Bool true)
(define-fun |counter_i| ((state |counter_s|)) Bool
(= (|counter#1| state) #b000) ; cnt
)
(define-fun |counter_h| ((state |counter_s|)) Bool true)
(define-fun |counter_t| ((state |counter_s|) (next_state |counter_s|)) Bool
(= (|counter#5| state) (|counter#1| next_state)) ; $procdff$7 \cnt
) ; end of module counter
; yosys-smt2-topmod counter
; end of yosys output
(declare-fun s0 () |counter_s|)
(assert (|counter_u| s0))
(assert (|counter_h| s0))
(assert true)
(assert (|counter_i| s0))
(assert (|counter_is| s0))
(push 1)
(assert (not (and (|counter_a| s0) true)))
; running check-sat..
(set-info :status unsat)
(check-sat)
(pop 1)
(assert (|counter_a| s0))
(assert true)
(declare-fun s1 () |counter_s|)
(assert (|counter_u| s1))
(assert (|counter_h| s1))
(assert true)
(assert (|counter_t| s0 s1))
(assert (not (|counter_is| s1)))
(push 1)
(assert (not (and (|counter_a| s1) true)))
; running check-sat..
(set-info :status unsat)
(check-sat)
(pop 1)
(assert (|counter_a| s1))
(assert true)
(declare-fun s2 () |counter_s|)
(assert (|counter_u| s2))
(assert (|counter_h| s2))
(assert true)
(assert (|counter_t| s1 s2))
(assert (not (|counter_is| s2)))
(push 1)
(assert (not (and (|counter_a| s2) true)))
; running check-sat..
(set-info :status unsat)
(check-sat)
(pop 1)
(assert (|counter_a| s2))
(assert true)
(declare-fun s3 () |counter_s|)
(assert (|counter_u| s3))
(assert (|counter_h| s3))
(assert true)
(assert (|counter_t| s2 s3))
(assert (not (|counter_is| s3)))
(push 1)
(assert (not (and (|counter_a| s3) true)))
; running check-sat..
(set-info :status sat)
(check-sat)
(get-value ((|counter_a| s3)))
(get-value ((|counter#3| s3)))
(exit)
